;; translated from ./conc/lamport_safe.vmt
;; original benchmark available at: https://es-static.fbk.eu/people/griggio/ic3ia/index.html
;; author: Alberto Griggio <griggio@fbk.eu>
(set-logic HORN)
(declare-fun state (Bool Bool Bool Bool Bool Bool Bool Bool Bool Bool Int Int Int Int Int) Bool)
(assert (forall ((|thr1.location.1| Bool) (|thr1.location.0| Bool) (|C| Int) (|thr1.location.2| Bool) (|y| Int) (|x| Int) (|thr2.EVENT.0| Bool) (|thr1.EVENT.0| Bool) (|x.next| Int) (|thr2.b.next| Int) (|y.next| Int) (|C.next| Int) (|thr2.location.2.next| Bool) (|thr2.location.1.next| Bool) (|thr2.location.3.next| Bool) (|thr2.location.4.next| Bool) (|thr2.location.0.next| Bool) (|thr1.location.2.next| Bool) (|thr1.location.1.next| Bool) (|thr1.location.3.next| Bool) (|thr1.location.4.next| Bool) (|thr1.b.next| Int) (|thr1.location.0.next| Bool) (|thr2.b| Int) (|thr2.location.4| Bool) (|thr2.location.3| Bool) (|thr2.location.2| Bool) (|thr2.location.1| Bool) (|thr2.location.0| Bool) (|thr1.b| Int) (|thr1.location.4| Bool) (|thr1.location.3| Bool)) (=> (let ((.def_62 (= thr2.b 0)))
(let ((.def_59 (not thr2.location.4)))
(let ((.def_57 (not thr2.location.3)))
(let ((.def_55 (not thr2.location.2)))
(let ((.def_19 (not thr2.location.1)))
(let ((.def_16 (not thr2.location.0)))
(let ((.def_54 (and .def_16 .def_19)))
(let ((.def_56 (and .def_54 .def_55)))
(let ((.def_58 (and .def_56 .def_57)))
(let ((.def_60 (and .def_58 .def_59)))
(let ((.def_63 (and .def_60 .def_62)))
(let ((.def_53 (= thr1.b 0)))
(let ((.def_64 (and .def_53 .def_63)))
(let ((.def_50 (not thr1.location.4)))
(let ((.def_48 (not thr1.location.3)))
(let ((.def_46 (not thr1.location.2)))
(let ((.def_33 (not thr1.location.1)))
(let ((.def_30 (not thr1.location.0)))
(let ((.def_45 (and .def_30 .def_33)))
(let ((.def_47 (and .def_45 .def_46)))
(let ((.def_49 (and .def_47 .def_48)))
(let ((.def_51 (and .def_49 .def_50)))
(let ((.def_65 (and .def_51 .def_64)))
(let ((.def_44 (= C 0)))
(let ((.def_66 (and .def_44 .def_65)))
(let ((.def_42 (= y 0)))
(let ((.def_67 (and .def_42 .def_66)))
(let ((.def_40 (= x 0)))
(let ((.def_68 (and .def_40 .def_67)))
(let ((.def_34 (or .def_30 .def_33)))
(let ((.def_25 (or thr1.location.2 thr1.location.3)))
(let ((.def_27 (or .def_25 thr1.location.4)))
(let ((.def_35 (or .def_27 .def_34)))
(let ((.def_28 (not .def_27)))
(let ((.def_31 (or .def_28 .def_30)))
(let ((.def_36 (and .def_31 .def_35)))
(let ((.def_20 (or .def_16 .def_19)))
(let ((.def_11 (or thr2.location.2 thr2.location.3)))
(let ((.def_13 (or .def_11 thr2.location.4)))
(let ((.def_21 (or .def_13 .def_20)))
(let ((.def_14 (not .def_13)))
(let ((.def_17 (or .def_14 .def_16)))
(let ((.def_22 (and .def_17 .def_21)))
(let ((.def_37 (and .def_22 .def_36)))
(let ((.def_69 (and .def_37 .def_68)))
.def_69))))))))))))))))))))))))))))))))))))))))))))) (state |thr2.location.2| |thr2.location.3| |thr2.location.4| |thr2.location.0| |thr2.location.1| |thr1.location.2| |thr1.location.3| |thr1.location.4| |thr1.location.0| |thr1.location.1| |x| |y| |C| |thr1.b| |thr2.b|))))
(assert (forall ((|thr1.location.1| Bool) (|thr1.location.0| Bool) (|C| Int) (|thr1.location.2| Bool) (|y| Int) (|x| Int) (|thr2.EVENT.0| Bool) (|thr1.EVENT.0| Bool) (|x.next| Int) (|thr2.b.next| Int) (|y.next| Int) (|C.next| Int) (|thr2.location.2.next| Bool) (|thr2.location.1.next| Bool) (|thr2.location.3.next| Bool) (|thr2.location.4.next| Bool) (|thr2.location.0.next| Bool) (|thr1.location.2.next| Bool) (|thr1.location.1.next| Bool) (|thr1.location.3.next| Bool) (|thr1.location.4.next| Bool) (|thr1.b.next| Int) (|thr1.location.0.next| Bool) (|thr2.b| Int) (|thr2.location.4| Bool) (|thr2.location.3| Bool) (|thr2.location.2| Bool) (|thr2.location.1| Bool) (|thr2.location.0| Bool) (|thr1.b| Int) (|thr1.location.4| Bool) (|thr1.location.3| Bool)) (=> (and (state |thr2.location.2| |thr2.location.3| |thr2.location.4| |thr2.location.0| |thr2.location.1| |thr1.location.2| |thr1.location.3| |thr1.location.4| |thr1.location.0| |thr1.location.1| |x| |y| |C| |thr1.b| |thr2.b|) (let ((.def_353 (not thr2.EVENT.0)))
(let ((.def_137 (not thr1.EVENT.0)))
(let ((.def_540 (or .def_137 .def_353)))
(let ((.def_538 (and .def_137 .def_353)))
(let ((.def_539 (not .def_538)))
(let ((.def_541 (and .def_539 .def_540)))
(let ((.def_55 (not thr2.location.2)))
(let ((.def_19 (not thr2.location.1)))
(let ((.def_485 (and .def_19 .def_55)))
(let ((.def_57 (not thr2.location.3)))
(let ((.def_515 (and .def_57 .def_485)))
(let ((.def_516 (and thr2.location.4 .def_515)))
(let ((.def_517 (not .def_516)))
(let ((.def_510 (= x.next 2)))
(let ((.def_332 (= thr2.b thr2.b.next)))
(let ((.def_511 (and .def_332 .def_510)))
(let ((.def_125 (= y y.next)))
(let ((.def_512 (and .def_125 .def_511)))
(let ((.def_128 (= C C.next)))
(let ((.def_513 (and .def_128 .def_512)))
(let ((.def_337 (not thr2.location.2.next)))
(let ((.def_80 (not thr2.location.1.next)))
(let ((.def_491 (and .def_80 .def_337)))
(let ((.def_492 (and thr2.location.3.next .def_491)))
(let ((.def_341 (not thr2.location.4.next)))
(let ((.def_509 (and .def_341 .def_492)))
(let ((.def_514 (and .def_509 .def_513)))
(let ((.def_518 (or .def_514 .def_517)))
(let ((.def_519 (or .def_353 .def_518)))
(let ((.def_59 (not thr2.location.4)))
(let ((.def_16 (not thr2.location.0)))
(let ((.def_54 (and .def_16 .def_19)))
(let ((.def_56 (and .def_54 .def_55)))
(let ((.def_58 (and .def_56 .def_57)))
(let ((.def_60 (and .def_58 .def_59)))
(let ((.def_506 (not .def_60)))
(let ((.def_339 (not thr2.location.3.next)))
(let ((.def_503 (and .def_339 .def_491)))
(let ((.def_504 (and thr2.location.4.next .def_503)))
(let ((.def_435 (= thr2.b.next 2)))
(let ((.def_122 (= x x.next)))
(let ((.def_436 (and .def_122 .def_435)))
(let ((.def_437 (and .def_125 .def_436)))
(let ((.def_438 (and .def_128 .def_437)))
(let ((.def_505 (and .def_438 .def_504)))
(let ((.def_507 (or .def_505 .def_506)))
(let ((.def_508 (or .def_353 .def_507)))
(let ((.def_520 (and .def_508 .def_519)))
(let ((.def_486 (and thr2.location.3 .def_485)))
(let ((.def_499 (and .def_59 .def_486)))
(let ((.def_500 (not .def_499)))
(let ((.def_457 (and thr2.location.2.next .def_80)))
(let ((.def_458 (and thr2.location.3.next .def_457)))
(let ((.def_495 (and .def_341 .def_458)))
(let ((.def_42 (= y 0)))
(let ((.def_186 (not .def_42)))
(let ((.def_496 (or .def_186 .def_495)))
(let ((.def_493 (and thr2.location.4.next .def_492)))
(let ((.def_494 (or .def_42 .def_493)))
(let ((.def_497 (and .def_494 .def_496)))
(let ((.def_343 (and .def_122 .def_332)))
(let ((.def_344 (and .def_125 .def_343)))
(let ((.def_345 (and .def_128 .def_344)))
(let ((.def_498 (and .def_345 .def_497)))
(let ((.def_501 (or .def_498 .def_500)))
(let ((.def_502 (or .def_353 .def_501)))
(let ((.def_521 (and .def_502 .def_520)))
(let ((.def_487 (and thr2.location.4 .def_486)))
(let ((.def_488 (not .def_487)))
(let ((.def_473 (and .def_339 .def_457)))
(let ((.def_474 (and .def_341 .def_473)))
(let ((.def_355 (= thr2.b.next 0)))
(let ((.def_356 (and .def_122 .def_355)))
(let ((.def_357 (and .def_125 .def_356)))
(let ((.def_358 (and .def_128 .def_357)))
(let ((.def_484 (and .def_358 .def_474)))
(let ((.def_489 (or .def_484 .def_488)))
(let ((.def_490 (or .def_353 .def_489)))
(let ((.def_522 (and .def_490 .def_521)))
(let ((.def_451 (and thr2.location.2 .def_19)))
(let ((.def_468 (and .def_57 .def_451)))
(let ((.def_480 (and .def_59 .def_468)))
(let ((.def_481 (not .def_480)))
(let ((.def_476 (and thr2.location.4.next .def_473)))
(let ((.def_477 (or .def_186 .def_476)))
(let ((.def_475 (or .def_42 .def_474)))
(let ((.def_478 (and .def_475 .def_477)))
(let ((.def_479 (and .def_345 .def_478)))
(let ((.def_482 (or .def_479 .def_481)))
(let ((.def_483 (or .def_353 .def_482)))
(let ((.def_523 (and .def_483 .def_522)))
(let ((.def_469 (and thr2.location.4 .def_468)))
(let ((.def_470 (not .def_469)))
(let ((.def_77 (not thr2.location.0.next)))
(let ((.def_388 (and .def_77 .def_80)))
(let ((.def_389 (and .def_337 .def_388)))
(let ((.def_390 (and .def_339 .def_389)))
(let ((.def_391 (and .def_341 .def_390)))
(let ((.def_392 (and .def_345 .def_391)))
(let ((.def_471 (or .def_392 .def_470)))
(let ((.def_472 (or .def_353 .def_471)))
(let ((.def_524 (and .def_472 .def_523)))
(let ((.def_452 (and thr2.location.3 .def_451)))
(let ((.def_464 (and .def_59 .def_452)))
(let ((.def_465 (not .def_464)))
(let ((.def_460 (= y.next 2)))
(let ((.def_461 (and .def_343 .def_460)))
(let ((.def_462 (and .def_128 .def_461)))
(let ((.def_459 (and thr2.location.4.next .def_458)))
(let ((.def_463 (and .def_459 .def_462)))
(let ((.def_466 (or .def_463 .def_465)))
(let ((.def_467 (or .def_353 .def_466)))
(let ((.def_525 (and .def_467 .def_524)))
(let ((.def_453 (and thr2.location.4 .def_452)))
(let ((.def_454 (not .def_453)))
(let ((.def_445 (= x 2)))
(let ((.def_447 (not .def_445)))
(let ((.def_366 (and thr2.location.2.next thr2.location.1.next)))
(let ((.def_399 (and .def_339 .def_366)))
(let ((.def_413 (and thr2.location.4.next .def_399)))
(let ((.def_448 (or .def_413 .def_447)))
(let ((.def_395 (and thr2.location.1.next .def_337)))
(let ((.def_423 (and .def_339 .def_395)))
(let ((.def_444 (and .def_341 .def_423)))
(let ((.def_446 (or .def_444 .def_445)))
(let ((.def_449 (and .def_446 .def_448)))
(let ((.def_450 (and .def_345 .def_449)))
(let ((.def_455 (or .def_450 .def_454)))
(let ((.def_456 (or .def_353 .def_455)))
(let ((.def_526 (and .def_456 .def_525)))
(let ((.def_404 (and thr2.location.1 .def_55)))
(let ((.def_430 (and .def_57 .def_404)))
(let ((.def_440 (and .def_59 .def_430)))
(let ((.def_441 (not .def_440)))
(let ((.def_424 (and thr2.location.4.next .def_423)))
(let ((.def_439 (and .def_424 .def_438)))
(let ((.def_442 (or .def_439 .def_441)))
(let ((.def_443 (or .def_353 .def_442)))
(let ((.def_527 (and .def_443 .def_526)))
(let ((.def_431 (and thr2.location.4 .def_430)))
(let ((.def_432 (not .def_431)))
(let ((.def_396 (and thr2.location.3.next .def_395)))
(let ((.def_426 (and .def_341 .def_396)))
(let ((.def_421 (<= 1 thr1.b)))
(let ((.def_427 (or .def_421 .def_426)))
(let ((.def_422 (not .def_421)))
(let ((.def_425 (or .def_422 .def_424)))
(let ((.def_428 (and .def_425 .def_427)))
(let ((.def_429 (and .def_345 .def_428)))
(let ((.def_433 (or .def_429 .def_432)))
(let ((.def_434 (or .def_353 .def_433)))
(let ((.def_528 (and .def_434 .def_527)))
(let ((.def_405 (and thr2.location.3 .def_404)))
(let ((.def_417 (and .def_59 .def_405)))
(let ((.def_418 (not .def_417)))
(let ((.def_410 (= y 2)))
(let ((.def_412 (not .def_410)))
(let ((.def_414 (or .def_412 .def_413)))
(let ((.def_397 (and thr2.location.4.next .def_396)))
(let ((.def_411 (or .def_397 .def_410)))
(let ((.def_415 (and .def_411 .def_414)))
(let ((.def_416 (and .def_345 .def_415)))
(let ((.def_419 (or .def_416 .def_418)))
(let ((.def_420 (or .def_353 .def_419)))
(let ((.def_529 (and .def_420 .def_528)))
(let ((.def_406 (and thr2.location.4 .def_405)))
(let ((.def_407 (not .def_406)))
(let ((.def_400 (and .def_341 .def_399)))
(let ((.def_401 (or .def_186 .def_400)))
(let ((.def_398 (or .def_42 .def_397)))
(let ((.def_402 (and .def_398 .def_401)))
(let ((.def_403 (and .def_345 .def_402)))
(let ((.def_408 (or .def_403 .def_407)))
(let ((.def_409 (or .def_353 .def_408)))
(let ((.def_530 (and .def_409 .def_529)))
(let ((.def_360 (and thr2.location.2 thr2.location.1)))
(let ((.def_381 (and .def_57 .def_360)))
(let ((.def_386 (and .def_59 .def_381)))
(let ((.def_387 (not .def_386)))
(let ((.def_393 (or .def_387 .def_392)))
(let ((.def_394 (or .def_353 .def_393)))
(let ((.def_531 (and .def_394 .def_530)))
(let ((.def_382 (and thr2.location.4 .def_381)))
(let ((.def_383 (not .def_382)))
(let ((.def_378 (= C.next 2)))
(let ((.def_379 (and .def_344 .def_378)))
(let ((.def_367 (and thr2.location.3.next .def_366)))
(let ((.def_376 (and .def_341 .def_367)))
(let ((.def_380 (and .def_376 .def_379)))
(let ((.def_384 (or .def_380 .def_383)))
(let ((.def_385 (or .def_353 .def_384)))
(let ((.def_532 (and .def_385 .def_531)))
(let ((.def_361 (and thr2.location.3 .def_360)))
(let ((.def_372 (and .def_59 .def_361)))
(let ((.def_373 (not .def_372)))
(let ((.def_153 (= y.next 0)))
(let ((.def_369 (and .def_153 .def_343)))
(let ((.def_370 (and .def_128 .def_369)))
(let ((.def_368 (and thr2.location.4.next .def_367)))
(let ((.def_371 (and .def_368 .def_370)))
(let ((.def_374 (or .def_371 .def_373)))
(let ((.def_375 (or .def_353 .def_374)))
(let ((.def_533 (and .def_375 .def_532)))
(let ((.def_362 (and thr2.location.4 .def_361)))
(let ((.def_363 (not .def_362)))
(let ((.def_336 (and thr2.location.0.next .def_80)))
(let ((.def_338 (and .def_336 .def_337)))
(let ((.def_340 (and .def_338 .def_339)))
(let ((.def_342 (and .def_340 .def_341)))
(let ((.def_359 (and .def_342 .def_358)))
(let ((.def_364 (or .def_359 .def_363)))
(let ((.def_365 (or .def_353 .def_364)))
(let ((.def_534 (and .def_365 .def_533)))
(let ((.def_347 (and thr2.location.0 .def_19)))
(let ((.def_348 (and .def_55 .def_347)))
(let ((.def_349 (and .def_57 .def_348)))
(let ((.def_350 (and .def_59 .def_349)))
(let ((.def_351 (not .def_350)))
(let ((.def_346 (and .def_342 .def_345)))
(let ((.def_352 (or .def_346 .def_351)))
(let ((.def_354 (or .def_352 .def_353)))
(let ((.def_535 (and .def_354 .def_534)))
(let ((.def_329 (= thr2.location.0 thr2.location.0.next)))
(let ((.def_327 (= thr2.location.1 thr2.location.1.next)))
(let ((.def_325 (= thr2.location.2 thr2.location.2.next)))
(let ((.def_323 (= thr2.location.3 thr2.location.3.next)))
(let ((.def_322 (= thr2.location.4 thr2.location.4.next)))
(let ((.def_324 (and .def_322 .def_323)))
(let ((.def_326 (and .def_324 .def_325)))
(let ((.def_328 (and .def_326 .def_327)))
(let ((.def_330 (and .def_328 .def_329)))
(let ((.def_333 (and .def_330 .def_332)))
(let ((.def_335 (or .def_333 thr2.EVENT.0)))
(let ((.def_536 (and .def_335 .def_535)))
(let ((.def_46 (not thr1.location.2)))
(let ((.def_190 (and thr1.location.1 .def_46)))
(let ((.def_48 (not thr1.location.3)))
(let ((.def_214 (and .def_48 .def_190)))
(let ((.def_318 (and thr1.location.4 .def_214)))
(let ((.def_319 (not .def_318)))
(let ((.def_115 (not thr1.location.2.next)))
(let ((.def_180 (and thr1.location.1.next .def_115)))
(let ((.def_181 (and thr1.location.3.next .def_180)))
(let ((.def_119 (not thr1.location.4.next)))
(let ((.def_314 (and .def_119 .def_181)))
(let ((.def_311 (<= 1 thr2.b)))
(let ((.def_315 (or .def_311 .def_314)))
(let ((.def_312 (not .def_311)))
(let ((.def_117 (not thr1.location.3.next)))
(let ((.def_211 (and .def_117 .def_180)))
(let ((.def_212 (and thr1.location.4.next .def_211)))
(let ((.def_313 (or .def_212 .def_312)))
(let ((.def_316 (and .def_313 .def_315)))
(let ((.def_110 (= thr1.b thr1.b.next)))
(let ((.def_123 (and .def_110 .def_122)))
(let ((.def_126 (and .def_123 .def_125)))
(let ((.def_129 (and .def_126 .def_128)))
(let ((.def_317 (and .def_129 .def_316)))
(let ((.def_320 (or .def_317 .def_319)))
(let ((.def_321 (or .def_137 .def_320)))
(let ((.def_537 (and .def_321 .def_536)))
(let ((.def_542 (and .def_537 .def_541)))
(let ((.def_33 (not thr1.location.1)))
(let ((.def_260 (and .def_33 .def_46)))
(let ((.def_290 (and .def_48 .def_260)))
(let ((.def_291 (and thr1.location.4 .def_290)))
(let ((.def_292 (not .def_291)))
(let ((.def_285 (= x.next 1)))
(let ((.def_286 (and .def_110 .def_285)))
(let ((.def_287 (and .def_125 .def_286)))
(let ((.def_288 (and .def_128 .def_287)))
(let ((.def_94 (not thr1.location.1.next)))
(let ((.def_266 (and .def_94 .def_115)))
(let ((.def_267 (and thr1.location.3.next .def_266)))
(let ((.def_284 (and .def_119 .def_267)))
(let ((.def_289 (and .def_284 .def_288)))
(let ((.def_293 (or .def_289 .def_292)))
(let ((.def_294 (or .def_137 .def_293)))
(let ((.def_50 (not thr1.location.4)))
(let ((.def_30 (not thr1.location.0)))
(let ((.def_45 (and .def_30 .def_33)))
(let ((.def_47 (and .def_45 .def_46)))
(let ((.def_49 (and .def_47 .def_48)))
(let ((.def_51 (and .def_49 .def_50)))
(let ((.def_281 (not .def_51)))
(let ((.def_278 (and .def_117 .def_266)))
(let ((.def_279 (and thr1.location.4.next .def_278)))
(let ((.def_207 (= thr1.b.next 1)))
(let ((.def_208 (and .def_122 .def_207)))
(let ((.def_209 (and .def_125 .def_208)))
(let ((.def_210 (and .def_128 .def_209)))
(let ((.def_280 (and .def_210 .def_279)))
(let ((.def_282 (or .def_280 .def_281)))
(let ((.def_283 (or .def_137 .def_282)))
(let ((.def_295 (and .def_283 .def_294)))
(let ((.def_261 (and thr1.location.3 .def_260)))
(let ((.def_274 (and .def_50 .def_261)))
(let ((.def_275 (not .def_274)))
(let ((.def_232 (and thr1.location.2.next .def_94)))
(let ((.def_233 (and thr1.location.3.next .def_232)))
(let ((.def_270 (and .def_119 .def_233)))
(let ((.def_271 (or .def_186 .def_270)))
(let ((.def_268 (and thr1.location.4.next .def_267)))
(let ((.def_269 (or .def_42 .def_268)))
(let ((.def_272 (and .def_269 .def_271)))
(let ((.def_273 (and .def_129 .def_272)))
(let ((.def_276 (or .def_273 .def_275)))
(let ((.def_277 (or .def_137 .def_276)))
(let ((.def_296 (and .def_277 .def_295)))
(let ((.def_262 (and thr1.location.4 .def_261)))
(let ((.def_263 (not .def_262)))
(let ((.def_248 (and .def_117 .def_232)))
(let ((.def_249 (and .def_119 .def_248)))
(let ((.def_139 (= thr1.b.next 0)))
(let ((.def_140 (and .def_122 .def_139)))
(let ((.def_141 (and .def_125 .def_140)))
(let ((.def_142 (and .def_128 .def_141)))
(let ((.def_259 (and .def_142 .def_249)))
(let ((.def_264 (or .def_259 .def_263)))
(let ((.def_265 (or .def_137 .def_264)))
(let ((.def_297 (and .def_265 .def_296)))
(let ((.def_226 (and thr1.location.2 .def_33)))
(let ((.def_243 (and .def_48 .def_226)))
(let ((.def_255 (and .def_50 .def_243)))
(let ((.def_256 (not .def_255)))
(let ((.def_251 (and thr1.location.4.next .def_248)))
(let ((.def_252 (or .def_186 .def_251)))
(let ((.def_250 (or .def_42 .def_249)))
(let ((.def_253 (and .def_250 .def_252)))
(let ((.def_254 (and .def_129 .def_253)))
(let ((.def_257 (or .def_254 .def_256)))
(let ((.def_258 (or .def_137 .def_257)))
(let ((.def_298 (and .def_258 .def_297)))
(let ((.def_244 (and thr1.location.4 .def_243)))
(let ((.def_245 (not .def_244)))
(let ((.def_91 (not thr1.location.0.next)))
(let ((.def_173 (and .def_91 .def_94)))
(let ((.def_174 (and .def_115 .def_173)))
(let ((.def_175 (and .def_117 .def_174)))
(let ((.def_176 (and .def_119 .def_175)))
(let ((.def_177 (and .def_129 .def_176)))
(let ((.def_246 (or .def_177 .def_245)))
(let ((.def_247 (or .def_137 .def_246)))
(let ((.def_299 (and .def_247 .def_298)))
(let ((.def_227 (and thr1.location.3 .def_226)))
(let ((.def_239 (and .def_50 .def_227)))
(let ((.def_240 (not .def_239)))
(let ((.def_235 (= y.next 1)))
(let ((.def_236 (and .def_123 .def_235)))
(let ((.def_237 (and .def_128 .def_236)))
(let ((.def_234 (and thr1.location.4.next .def_233)))
(let ((.def_238 (and .def_234 .def_237)))
(let ((.def_241 (or .def_238 .def_240)))
(let ((.def_242 (or .def_137 .def_241)))
(let ((.def_300 (and .def_242 .def_299)))
(let ((.def_228 (and thr1.location.4 .def_227)))
(let ((.def_229 (not .def_228)))
(let ((.def_220 (= x 1)))
(let ((.def_222 (not .def_220)))
(let ((.def_150 (and thr1.location.2.next thr1.location.1.next)))
(let ((.def_184 (and .def_117 .def_150)))
(let ((.def_199 (and thr1.location.4.next .def_184)))
(let ((.def_223 (or .def_199 .def_222)))
(let ((.def_219 (and .def_119 .def_211)))
(let ((.def_221 (or .def_219 .def_220)))
(let ((.def_224 (and .def_221 .def_223)))
(let ((.def_225 (and .def_129 .def_224)))
(let ((.def_230 (or .def_225 .def_229)))
(let ((.def_231 (or .def_137 .def_230)))
(let ((.def_301 (and .def_231 .def_300)))
(let ((.def_215 (and .def_50 .def_214)))
(let ((.def_216 (not .def_215)))
(let ((.def_213 (and .def_210 .def_212)))
(let ((.def_217 (or .def_213 .def_216)))
(let ((.def_218 (or .def_137 .def_217)))
(let ((.def_302 (and .def_218 .def_301)))
(let ((.def_191 (and thr1.location.3 .def_190)))
(let ((.def_203 (and .def_50 .def_191)))
(let ((.def_204 (not .def_203)))
(let ((.def_196 (= y 1)))
(let ((.def_198 (not .def_196)))
(let ((.def_200 (or .def_198 .def_199)))
(let ((.def_182 (and thr1.location.4.next .def_181)))
(let ((.def_197 (or .def_182 .def_196)))
(let ((.def_201 (and .def_197 .def_200)))
(let ((.def_202 (and .def_129 .def_201)))
(let ((.def_205 (or .def_202 .def_204)))
(let ((.def_206 (or .def_137 .def_205)))
(let ((.def_303 (and .def_206 .def_302)))
(let ((.def_192 (and thr1.location.4 .def_191)))
(let ((.def_193 (not .def_192)))
(let ((.def_185 (and .def_119 .def_184)))
(let ((.def_187 (or .def_185 .def_186)))
(let ((.def_183 (or .def_42 .def_182)))
(let ((.def_188 (and .def_183 .def_187)))
(let ((.def_189 (and .def_129 .def_188)))
(let ((.def_194 (or .def_189 .def_193)))
(let ((.def_195 (or .def_137 .def_194)))
(let ((.def_304 (and .def_195 .def_303)))
(let ((.def_144 (and thr1.location.2 thr1.location.1)))
(let ((.def_166 (and .def_48 .def_144)))
(let ((.def_171 (and .def_50 .def_166)))
(let ((.def_172 (not .def_171)))
(let ((.def_178 (or .def_172 .def_177)))
(let ((.def_179 (or .def_137 .def_178)))
(let ((.def_305 (and .def_179 .def_304)))
(let ((.def_167 (and thr1.location.4 .def_166)))
(let ((.def_168 (not .def_167)))
(let ((.def_163 (= C.next 1)))
(let ((.def_164 (and .def_126 .def_163)))
(let ((.def_151 (and thr1.location.3.next .def_150)))
(let ((.def_161 (and .def_119 .def_151)))
(let ((.def_165 (and .def_161 .def_164)))
(let ((.def_169 (or .def_165 .def_168)))
(let ((.def_170 (or .def_137 .def_169)))
(let ((.def_306 (and .def_170 .def_305)))
(let ((.def_145 (and thr1.location.3 .def_144)))
(let ((.def_157 (and .def_50 .def_145)))
(let ((.def_158 (not .def_157)))
(let ((.def_154 (and .def_123 .def_153)))
(let ((.def_155 (and .def_128 .def_154)))
(let ((.def_152 (and thr1.location.4.next .def_151)))
(let ((.def_156 (and .def_152 .def_155)))
(let ((.def_159 (or .def_156 .def_158)))
(let ((.def_160 (or .def_137 .def_159)))
(let ((.def_307 (and .def_160 .def_306)))
(let ((.def_146 (and thr1.location.4 .def_145)))
(let ((.def_147 (not .def_146)))
(let ((.def_114 (and thr1.location.0.next .def_94)))
(let ((.def_116 (and .def_114 .def_115)))
(let ((.def_118 (and .def_116 .def_117)))
(let ((.def_120 (and .def_118 .def_119)))
(let ((.def_143 (and .def_120 .def_142)))
(let ((.def_148 (or .def_143 .def_147)))
(let ((.def_149 (or .def_137 .def_148)))
(let ((.def_308 (and .def_149 .def_307)))
(let ((.def_131 (and thr1.location.0 .def_33)))
(let ((.def_132 (and .def_46 .def_131)))
(let ((.def_133 (and .def_48 .def_132)))
(let ((.def_134 (and .def_50 .def_133)))
(let ((.def_135 (not .def_134)))
(let ((.def_130 (and .def_120 .def_129)))
(let ((.def_136 (or .def_130 .def_135)))
(let ((.def_138 (or .def_136 .def_137)))
(let ((.def_309 (and .def_138 .def_308)))
(let ((.def_107 (= thr1.location.0 thr1.location.0.next)))
(let ((.def_105 (= thr1.location.1 thr1.location.1.next)))
(let ((.def_103 (= thr1.location.2 thr1.location.2.next)))
(let ((.def_101 (= thr1.location.3 thr1.location.3.next)))
(let ((.def_100 (= thr1.location.4 thr1.location.4.next)))
(let ((.def_102 (and .def_100 .def_101)))
(let ((.def_104 (and .def_102 .def_103)))
(let ((.def_106 (and .def_104 .def_105)))
(let ((.def_108 (and .def_106 .def_107)))
(let ((.def_111 (and .def_108 .def_110)))
(let ((.def_113 (or .def_111 thr1.EVENT.0)))
(let ((.def_310 (and .def_113 .def_309)))
(let ((.def_543 (and .def_310 .def_542)))
(let ((.def_95 (or .def_91 .def_94)))
(let ((.def_86 (or thr1.location.2.next thr1.location.3.next)))
(let ((.def_88 (or .def_86 thr1.location.4.next)))
(let ((.def_96 (or .def_88 .def_95)))
(let ((.def_89 (not .def_88)))
(let ((.def_92 (or .def_89 .def_91)))
(let ((.def_97 (and .def_92 .def_96)))
(let ((.def_81 (or .def_77 .def_80)))
(let ((.def_72 (or thr2.location.2.next thr2.location.3.next)))
(let ((.def_74 (or .def_72 thr2.location.4.next)))
(let ((.def_82 (or .def_74 .def_81)))
(let ((.def_75 (not .def_74)))
(let ((.def_78 (or .def_75 .def_77)))
(let ((.def_83 (and .def_78 .def_82)))
(let ((.def_98 (and .def_83 .def_97)))
(let ((.def_34 (or .def_30 .def_33)))
(let ((.def_25 (or thr1.location.2 thr1.location.3)))
(let ((.def_27 (or .def_25 thr1.location.4)))
(let ((.def_35 (or .def_27 .def_34)))
(let ((.def_28 (not .def_27)))
(let ((.def_31 (or .def_28 .def_30)))
(let ((.def_36 (and .def_31 .def_35)))
(let ((.def_20 (or .def_16 .def_19)))
(let ((.def_11 (or thr2.location.2 thr2.location.3)))
(let ((.def_13 (or .def_11 thr2.location.4)))
(let ((.def_21 (or .def_13 .def_20)))
(let ((.def_14 (not .def_13)))
(let ((.def_17 (or .def_14 .def_16)))
(let ((.def_22 (and .def_17 .def_21)))
(let ((.def_37 (and .def_22 .def_36)))
(let ((.def_99 (and .def_37 .def_98)))
(let ((.def_544 (and .def_99 .def_543)))
.def_544))))))))))))))))))))))))))))))))))))))))))))))))))))))))))))))))))))))))))))))))))))))))))))))))))))))))))))))))))))))))))))))))))))))))))))))))))))))))))))))))))))))))))))))))))))))))))))))))))))))))))))))))))))))))))))))))))))))))))))))))))))))))))))))))))))))))))))))))))))))))))))))))))))))))))))))))))))))))))))))))))))))))))))))))))))))))))))))))))))))))))))))))))))))))))))))))))))))))))))))))))))))))))))))))))))))))))))))))))))))))))))))))))))))))))))))))))))))))))))))))))))))))))) (state |thr2.location.2.next| |thr2.location.3.next| |thr2.location.4.next| |thr2.location.0.next| |thr2.location.1.next| |thr1.location.2.next| |thr1.location.3.next| |thr1.location.4.next| |thr1.location.0.next| |thr1.location.1.next| |x.next| |y.next| |C.next| |thr1.b.next| |thr2.b.next|))))
(assert (forall ((|thr1.location.1| Bool) (|thr1.location.0| Bool) (|C| Int) (|thr1.location.2| Bool) (|y| Int) (|x| Int) (|thr2.EVENT.0| Bool) (|thr1.EVENT.0| Bool) (|x.next| Int) (|thr2.b.next| Int) (|y.next| Int) (|C.next| Int) (|thr2.location.2.next| Bool) (|thr2.location.1.next| Bool) (|thr2.location.3.next| Bool) (|thr2.location.4.next| Bool) (|thr2.location.0.next| Bool) (|thr1.location.2.next| Bool) (|thr1.location.1.next| Bool) (|thr1.location.3.next| Bool) (|thr1.location.4.next| Bool) (|thr1.b.next| Int) (|thr1.location.0.next| Bool) (|thr2.b| Int) (|thr2.location.4| Bool) (|thr2.location.3| Bool) (|thr2.location.2| Bool) (|thr2.location.1| Bool) (|thr2.location.0| Bool) (|thr1.b| Int) (|thr1.location.4| Bool) (|thr1.location.3| Bool)) (=> (state |thr2.location.2| |thr2.location.3| |thr2.location.4| |thr2.location.0| |thr2.location.1| |thr1.location.2| |thr1.location.3| |thr1.location.4| |thr1.location.0| |thr1.location.1| |x| |y| |C| |thr1.b| |thr2.b|) (let ((.def_545 (= C 1)))
(let ((.def_546 (not .def_545)))
(let ((.def_144 (and thr1.location.2 thr1.location.1)))
(let ((.def_145 (and thr1.location.3 .def_144)))
(let ((.def_50 (not thr1.location.4)))
(let ((.def_157 (and .def_50 .def_145)))
(let ((.def_547 (and .def_157 .def_546)))
(let ((.def_548 (not .def_547)))
.def_548)))))))))))
(check-sat)
